c User generated cnf file
p cnf 13 40
7 9 -5 0 
-11 9 7 0 
7 11 -13 0 
13 -7 3 0 
6 11 -5 0 
1 -10 11 0 
3 -13 7 0 
10 11 -12 0 
-6 12 10 0 
-10 8 3 0 
-2 11 10 0 
10 1 -12 0 
-3 7 9 0 
-11 13 5 0 
9 -4 11 0 
5 6 -12 0 
9 -5 1 0 
11 9 -12 0 
2 -5 2 0 
5 -5 11 0 
-7 5 11 0 
3 -11 1 0 
3 12 -7 0 
3 1 -5 0 
12 1 -5 0 
-9 6 1 0 
-3 10 2 0 
4 7 -13 0 
3 -2 3 0 
6 -1 2 0 
5 13 -2 0 
5 -6 5 0 
7 -2 11 0 
-1 3 10 0 
2 9 -6 0 
-12 6 3 0 
9 13 -12 0 
-3 10 9 0 
7 13 -8 0 
12 11 -12 0 
